(set-logic QF_LRA)
(declare-fun fluent_counter_t3@1 () Real)
(declare-fun fluent_busy_@1 () Bool)
(declare-fun fluent_started_i0_t0@1 () Bool)
(declare-fun fluent_started_i1_t0@1 () Bool)
(declare-fun fluent_started_i0_t0@0 () Bool)
(declare-fun fluent_started_i1_t0@0 () Bool)
(declare-fun fluent_started_i2_t0@0 () Bool)
(declare-fun fluent_started_i0_t1@0 () Bool)
(declare-fun fluent_started_i1_t1@0 () Bool)
(declare-fun fluent_started_i2_t1@0 () Bool)
(declare-fun fluent_started_i0_t2@0 () Bool)
(declare-fun fluent_started_i1_t2@0 () Bool)
(declare-fun fluent_started_i2_t2@0 () Bool)
(declare-fun fluent_started_i0_t3@0 () Bool)
(declare-fun fluent_started_i2_t0@1 () Bool)
(declare-fun fluent_ready_i0_t0@0 () Bool)
(declare-fun fluent_ready_i1_t0@0 () Bool)
(declare-fun fluent_ready_i2_t0@0 () Bool)
(declare-fun fluent_ready_i0_t1@0 () Bool)
(declare-fun fluent_ready_i1_t1@0 () Bool)
(declare-fun fluent_ready_i2_t1@0 () Bool)
(declare-fun fluent_ready_i0_t2@0 () Bool)
(declare-fun fluent_ready_i1_t2@0 () Bool)
(declare-fun fluent_ready_i2_t2@0 () Bool)
(declare-fun fluent_ready_i0_t3@0 () Bool)
(declare-fun fluent_ready_i1_t3@0 () Bool)
(declare-fun fluent_ready_i2_t3@0 () Bool)
(declare-fun fluent_started_i0_t3@1 () Bool)
(declare-fun fluent_started_i1_t3@0 () Bool)
(declare-fun fluent_started_i1_t3@1 () Bool)
(declare-fun fluent_started_i2_t3@1 () Bool)
(declare-fun fluent_started_i2_t3@0 () Bool)
(declare-fun fluent_treated_i0_t0@1 () Bool)
(declare-fun fluent_treated_i1_t0@1 () Bool)
(declare-fun fluent_busy_@0 () Bool)
(declare-fun fluent_treated_i2_t0@1 () Bool)
(declare-fun fluent_treated_i0_t0@0 () Bool)
(declare-fun fluent_treated_i1_t0@0 () Bool)
(declare-fun fluent_treated_i2_t0@0 () Bool)
(declare-fun fluent_treated_i0_t1@0 () Bool)
(declare-fun fluent_treated_i1_t1@0 () Bool)
(declare-fun fluent_treated_i2_t1@0 () Bool)
(declare-fun fluent_treated_i0_t2@0 () Bool)
(declare-fun fluent_treated_i1_t2@0 () Bool)
(declare-fun fluent_treated_i2_t2@0 () Bool)
(declare-fun fluent_treated_i0_t3@0 () Bool)
(declare-fun fluent_treated_i1_t3@0 () Bool)
(declare-fun fluent_treated_i2_t3@0 () Bool)
(declare-fun fluent_treated_i2_t1@1 () Bool)
(declare-fun fluent_treated_i0_t2@1 () Bool)
(declare-fun fluent_treated_i1_t2@1 () Bool)
(declare-fun fluent_treated_i2_t2@1 () Bool)
(declare-fun fluent_treated_i0_t3@1 () Bool)
(declare-fun fluent_treated_i1_t3@1 () Bool)
(declare-fun fluent_treated_i2_t3@1 () Bool)
(declare-fun fluent_ready_i0_t0@1 () Bool)
(declare-fun fluent_ready_i1_t0@1 () Bool)
(declare-fun fluent_ready_i2_t0@1 () Bool)
(declare-fun fluent_ready_i0_t1@1 () Bool)
(declare-fun fluent_ready_i1_t1@1 () Bool)
(declare-fun fluent_ready_i2_t1@1 () Bool)
(declare-fun fluent_ready_i0_t2@1 () Bool)
(declare-fun fluent_ready_i1_t2@1 () Bool)
(declare-fun fluent_ready_i2_t2@1 () Bool)
(declare-fun fluent_ready_i0_t3@1 () Bool)
(declare-fun fluent_counter_t0@0 () Real)
(declare-fun fluent_ready_i1_t3@1 () Bool)
(declare-fun fluent_ready_i2_t3@1 () Bool)
(declare-fun fluent_counter_t1@0 () Real)
(declare-fun fluent_started_i0_t1@1 () Bool)
(declare-fun fluent_counter_t2@0 () Real)
(declare-fun act_make_treatment@1 () Bool)
(declare-fun fluent_counter_t3@0 () Real)
(declare-fun fluent_started_i1_t1@1 () Bool)
(declare-fun dur_make_treatment@1 () Real)
(declare-fun t@1 () Real)
(declare-fun fluent_started_i2_t1@1 () Bool)
(declare-fun parameter_make_treatment_t@1 () Real)
(declare-fun fluent_started_i0_t2@1 () Bool)
(declare-fun parameter_make_treatment_i@1 () Real)
(declare-fun fluent_started_i1_t2@1 () Bool)
(declare-fun fluent_started_i2_t2@1 () Bool)
(declare-fun parameter_make_treatment_next@1 () Real)
(declare-fun fluent_treated_i0_t1@1 () Bool)
(declare-fun fluent_treated_i1_t1@1 () Bool)
(declare-fun fluent_counter_t0@1 () Real)
(declare-fun fluent_counter_t1@1 () Real)
(declare-fun fluent_counter_t2@1 () Real)
(assert (let ((.def_0 (<= 0.0 fluent_counter_t2@1))) (let ((.def_1 (= parameter_make_treatment_t@1 6.0))) (let ((.def_2 (= parameter_make_treatment_t@1 5.0))) (let ((.def_3 (= parameter_make_treatment_t@1 4.0))) (let ((.def_4 (= parameter_make_treatment_t@1 3.0))) (let ((.def_5 (or .def_4 .def_3 .def_2 .def_1))) (let ((.def_6 (<= 0.0 fluent_counter_t1@1))) (let ((.def_7 (<= fluent_counter_t0@1 31.0))) (let ((.def_8 (<= 0.0 fluent_counter_t0@1))) (let ((.def_9 (= parameter_make_treatment_next@1 6.0))) (let ((.def_10 (= parameter_make_treatment_next@1 5.0))) (let ((.def_11 (= parameter_make_treatment_next@1 4.0))) (let ((.def_12 (= parameter_make_treatment_next@1 3.0))) (let ((.def_13 (or .def_12 .def_11 .def_10 .def_9))) (let ((.def_14 (<= fluent_counter_t1@1 31.0))) (let ((.def_15 (<= fluent_counter_t3@1 31.0))) (let ((.def_16 (<= 0.0 fluent_counter_t3@1))) (let ((.def_17 (= parameter_make_treatment_i@1 2.0))) (let ((.def_18 (= parameter_make_treatment_i@1 1.0))) (let ((.def_19 (= parameter_make_treatment_i@1 0.0))) (let ((.def_20 (or .def_19 .def_18 .def_17))) (let ((.def_21 (<= fluent_counter_t2@1 31.0))) (let ((.def_22 (and act_make_treatment@1 true .def_1))) (let ((.def_23 (= fluent_counter_t3@0 fluent_counter_t3@1))) (let ((.def_24 (not .def_23))) (let ((.def_25 (=> .def_24 .def_22))) (let ((.def_26 (and act_make_treatment@1 true .def_2))) (let ((.def_27 (= fluent_counter_t2@0 fluent_counter_t2@1))) (let ((.def_28 (not .def_27))) (let ((.def_29 (=> .def_28 .def_26))) (let ((.def_30 (and act_make_treatment@1 true .def_3))) (let ((.def_31 (= fluent_counter_t1@0 fluent_counter_t1@1))) (let ((.def_32 (not .def_31))) (let ((.def_33 (=> .def_32 .def_30))) (let ((.def_34 (and act_make_treatment@1 true .def_4))) (let ((.def_35 (= fluent_counter_t0@0 fluent_counter_t0@1))) (let ((.def_36 (not .def_35))) (let ((.def_37 (=> .def_36 .def_34))) (let ((.def_38 (+ t@1 10.0))) (let ((.def_39 (= t@1 .def_38))) (let ((.def_40 (and act_make_treatment@1 true .def_39 .def_17 .def_9))) (let ((.def_41 (= fluent_ready_i2_t3@0 fluent_ready_i2_t3@1))) (let ((.def_42 (not .def_41))) (let ((.def_43 (=> .def_42 .def_40))) (let ((.def_44 (and act_make_treatment@1 true .def_39 .def_18 .def_9))) (let ((.def_45 (= fluent_ready_i1_t3@0 fluent_ready_i1_t3@1))) (let ((.def_46 (not .def_45))) (let ((.def_47 (=> .def_46 .def_44))) (let ((.def_48 (and act_make_treatment@1 true .def_39 .def_19 .def_9))) (let ((.def_49 (= fluent_ready_i0_t3@0 fluent_ready_i0_t3@1))) (let ((.def_50 (not .def_49))) (let ((.def_51 (=> .def_50 .def_48))) (let ((.def_52 (and act_make_treatment@1 true .def_39 .def_17 .def_10))) (let ((.def_53 (= fluent_ready_i2_t2@0 fluent_ready_i2_t2@1))) (let ((.def_54 (not .def_53))) (let ((.def_55 (=> .def_54 .def_52))) (let ((.def_56 (and act_make_treatment@1 true .def_39 .def_18 .def_10))) (let ((.def_57 (= fluent_ready_i1_t2@0 fluent_ready_i1_t2@1))) (let ((.def_58 (not .def_57))) (let ((.def_59 (=> .def_58 .def_56))) (let ((.def_60 (and act_make_treatment@1 true .def_39 .def_19 .def_10))) (let ((.def_61 (= fluent_ready_i0_t2@0 fluent_ready_i0_t2@1))) (let ((.def_62 (not .def_61))) (let ((.def_63 (=> .def_62 .def_60))) (let ((.def_64 (and act_make_treatment@1 true .def_39 .def_17 .def_11))) (let ((.def_65 (= fluent_ready_i2_t1@0 fluent_ready_i2_t1@1))) (let ((.def_66 (not .def_65))) (let ((.def_67 (=> .def_66 .def_64))) (let ((.def_68 (and act_make_treatment@1 true .def_39 .def_18 .def_11))) (let ((.def_69 (= fluent_ready_i1_t1@0 fluent_ready_i1_t1@1))) (let ((.def_70 (not .def_69))) (let ((.def_71 (=> .def_70 .def_68))) (let ((.def_72 (and act_make_treatment@1 true .def_39 .def_19 .def_11))) (let ((.def_73 (= fluent_ready_i0_t1@0 fluent_ready_i0_t1@1))) (let ((.def_74 (not .def_73))) (let ((.def_75 (=> .def_74 .def_72))) (let ((.def_76 (and act_make_treatment@1 true .def_39 .def_17 .def_12))) (let ((.def_77 (= fluent_ready_i2_t0@0 fluent_ready_i2_t0@1))) (let ((.def_78 (not .def_77))) (let ((.def_79 (=> .def_78 .def_76))) (let ((.def_80 (and act_make_treatment@1 true .def_39 .def_18 .def_12))) (let ((.def_81 (= fluent_ready_i1_t0@0 fluent_ready_i1_t0@1))) (let ((.def_82 (not .def_81))) (let ((.def_83 (=> .def_82 .def_80))) (let ((.def_84 (and act_make_treatment@1 true .def_39 .def_19 .def_12))) (let ((.def_85 (= fluent_ready_i0_t0@0 fluent_ready_i0_t0@1))) (let ((.def_86 (not .def_85))) (let ((.def_87 (=> .def_86 .def_84))) (let ((.def_88 (and act_make_treatment@1 true .def_17 .def_1))) (let ((.def_89 (= fluent_started_i2_t3@0 fluent_started_i2_t3@1))) (let ((.def_90 (not .def_89))) (let ((.def_91 (=> .def_90 .def_88))) (let ((.def_92 (and act_make_treatment@1 true .def_18 .def_1))) (let ((.def_93 (= fluent_started_i1_t3@0 fluent_started_i1_t3@1))) (let ((.def_94 (not .def_93))) (let ((.def_95 (=> .def_94 .def_92))) (let ((.def_96 (and act_make_treatment@1 true .def_19 .def_1))) (let ((.def_97 (= fluent_started_i0_t3@0 fluent_started_i0_t3@1))) (let ((.def_98 (not .def_97))) (let ((.def_99 (=> .def_98 .def_96))) (let ((.def_100 (and act_make_treatment@1 true .def_17 .def_2))) (let ((.def_101 (= fluent_started_i2_t2@0 fluent_started_i2_t2@1))) (let ((.def_102 (not .def_101))) (let ((.def_103 (=> .def_102 .def_100))) (let ((.def_104 (and act_make_treatment@1 true .def_18 .def_2))) (let ((.def_105 (= fluent_started_i1_t2@0 fluent_started_i1_t2@1))) (let ((.def_106 (not .def_105))) (let ((.def_107 (=> .def_106 .def_104))) (let ((.def_108 (and act_make_treatment@1 true .def_19 .def_2))) (let ((.def_109 (= fluent_started_i0_t2@0 fluent_started_i0_t2@1))) (let ((.def_110 (not .def_109))) (let ((.def_111 (=> .def_110 .def_108))) (let ((.def_112 (and act_make_treatment@1 true .def_17 .def_3))) (let ((.def_113 (= fluent_started_i2_t1@0 fluent_started_i2_t1@1))) (let ((.def_114 (not .def_113))) (let ((.def_115 (=> .def_114 .def_112))) (let ((.def_116 (and act_make_treatment@1 true .def_18 .def_3))) (let ((.def_117 (= fluent_started_i1_t1@0 fluent_started_i1_t1@1))) (let ((.def_118 (not .def_117))) (let ((.def_119 (=> .def_118 .def_116))) (let ((.def_120 (and act_make_treatment@1 true .def_19 .def_3))) (let ((.def_121 (= fluent_started_i0_t1@0 fluent_started_i0_t1@1))) (let ((.def_122 (not .def_121))) (let ((.def_123 (=> .def_122 .def_120))) (let ((.def_124 (and act_make_treatment@1 true .def_17 .def_4))) (let ((.def_125 (= fluent_started_i2_t0@0 fluent_started_i2_t0@1))) (let ((.def_126 (not .def_125))) (let ((.def_127 (=> .def_126 .def_124))) (let ((.def_128 (and act_make_treatment@1 true .def_18 .def_4))) (let ((.def_129 (= fluent_started_i1_t0@0 fluent_started_i1_t0@1))) (let ((.def_130 (not .def_129))) (let ((.def_131 (=> .def_130 .def_128))) (let ((.def_132 (and act_make_treatment@1 true .def_19 .def_4))) (let ((.def_133 (= fluent_started_i0_t0@0 fluent_started_i0_t0@1))) (let ((.def_134 (not .def_133))) (let ((.def_135 (=> .def_134 .def_132))) (let ((.def_136 (+ t@1 4.0))) (let ((.def_137 (= t@1 .def_136))) (let ((.def_138 (and act_make_treatment@1 true .def_137 .def_17 .def_1))) (let ((.def_139 (= fluent_treated_i2_t3@0 fluent_treated_i2_t3@1))) (let ((.def_140 (not .def_139))) (let ((.def_141 (=> .def_140 .def_138))) (let ((.def_142 (and act_make_treatment@1 true .def_137 .def_18 .def_1))) (let ((.def_143 (= fluent_treated_i1_t3@0 fluent_treated_i1_t3@1))) (let ((.def_144 (not .def_143))) (let ((.def_145 (=> .def_144 .def_142))) (let ((.def_146 (and act_make_treatment@1 true .def_137 .def_19 .def_1))) (let ((.def_147 (= fluent_treated_i0_t3@0 fluent_treated_i0_t3@1))) (let ((.def_148 (not .def_147))) (let ((.def_149 (=> .def_148 .def_146))) (let ((.def_150 (and act_make_treatment@1 true .def_137 .def_17 .def_2))) (let ((.def_151 (= fluent_treated_i2_t2@0 fluent_treated_i2_t2@1))) (let ((.def_152 (not .def_151))) (let ((.def_153 (=> .def_152 .def_150))) (let ((.def_154 (and act_make_treatment@1 true .def_137 .def_18 .def_2))) (let ((.def_155 (= fluent_treated_i1_t2@0 fluent_treated_i1_t2@1))) (let ((.def_156 (not .def_155))) (let ((.def_157 (=> .def_156 .def_154))) (let ((.def_158 (and act_make_treatment@1 true .def_137 .def_19 .def_2))) (let ((.def_159 (= fluent_treated_i0_t2@0 fluent_treated_i0_t2@1))) (let ((.def_160 (not .def_159))) (let ((.def_161 (=> .def_160 .def_158))) (let ((.def_162 (and act_make_treatment@1 true .def_137 .def_17 .def_3))) (let ((.def_163 (= fluent_treated_i2_t1@0 fluent_treated_i2_t1@1))) (let ((.def_164 (not .def_163))) (let ((.def_165 (=> .def_164 .def_162))) (let ((.def_166 (and act_make_treatment@1 true .def_137 .def_18 .def_3))) (let ((.def_167 (= fluent_treated_i1_t1@0 fluent_treated_i1_t1@1))) (let ((.def_168 (not .def_167))) (let ((.def_169 (=> .def_168 .def_166))) (let ((.def_170 (and act_make_treatment@1 true .def_137 .def_19 .def_3))) (let ((.def_171 (= fluent_treated_i0_t1@0 fluent_treated_i0_t1@1))) (let ((.def_172 (not .def_171))) (let ((.def_173 (=> .def_172 .def_170))) (let ((.def_174 (and act_make_treatment@1 true .def_137 .def_17 .def_4))) (let ((.def_175 (= fluent_treated_i2_t0@0 fluent_treated_i2_t0@1))) (let ((.def_176 (not .def_175))) (let ((.def_177 (=> .def_176 .def_174))) (let ((.def_178 (and act_make_treatment@1 true .def_137 .def_18 .def_4))) (let ((.def_179 (= fluent_treated_i1_t0@0 fluent_treated_i1_t0@1))) (let ((.def_180 (not .def_179))) (let ((.def_181 (=> .def_180 .def_178))) (let ((.def_182 (and act_make_treatment@1 true .def_137 .def_19 .def_4))) (let ((.def_183 (= fluent_treated_i0_t0@0 fluent_treated_i0_t0@1))) (let ((.def_184 (not .def_183))) (let ((.def_185 (=> .def_184 .def_182))) (let ((.def_186 (and act_make_treatment@1 true .def_137))) (let ((.def_187 (and act_make_treatment@1 true))) (let ((.def_188 (and .def_187 .def_186))) (let ((.def_189 (not .def_188))) (let ((.def_190 (or .def_187 .def_186))) (let ((.def_191 (= fluent_busy_@0 fluent_busy_@1))) (let ((.def_192 (not .def_191))) (let ((.def_193 (=> .def_192 .def_190))) (let ((.def_194 (and .def_193 .def_189 .def_185 .def_181 .def_177 .def_173 .def_169 .def_165 .def_161 .def_157 .def_153 .def_149 .def_145 .def_141 .def_135 .def_131 .def_127 .def_123 .def_119 .def_115 .def_111 .def_107 .def_103 .def_99 .def_95 .def_91 .def_87 .def_83 .def_79 .def_75 .def_71 .def_67 .def_63 .def_59 .def_55 .def_51 .def_47 .def_43 .def_37 .def_33 .def_29 .def_25))) (let ((.def_195 (<= 0.0 t@1))) (let ((.def_196 (and .def_18 .def_12))) (let ((.def_197 (ite .def_196 fluent_ready_i1_t0@1 fluent_ready_i0_t0@1))) (let ((.def_198 (and .def_17 .def_12))) (let ((.def_199 (ite .def_198 fluent_ready_i2_t0@1 .def_197))) (let ((.def_200 (and .def_19 .def_11))) (let ((.def_201 (ite .def_200 fluent_ready_i0_t1@1 .def_199))) (let ((.def_202 (and .def_18 .def_11))) (let ((.def_203 (ite .def_202 fluent_ready_i1_t1@1 .def_201))) (let ((.def_204 (and .def_17 .def_11))) (let ((.def_205 (ite .def_204 fluent_ready_i2_t1@1 .def_203))) (let ((.def_206 (and .def_19 .def_10))) (let ((.def_207 (ite .def_206 fluent_ready_i0_t2@1 .def_205))) (let ((.def_208 (and .def_18 .def_10))) (let ((.def_209 (ite .def_208 fluent_ready_i1_t2@1 .def_207))) (let ((.def_210 (and .def_17 .def_10))) (let ((.def_211 (ite .def_210 fluent_ready_i2_t2@1 .def_209))) (let ((.def_212 (and .def_19 .def_9))) (let ((.def_213 (ite .def_212 fluent_ready_i0_t3@1 .def_211))) (let ((.def_214 (and .def_18 .def_9))) (let ((.def_215 (ite .def_214 fluent_ready_i1_t3@1 .def_213))) (let ((.def_216 (and .def_17 .def_9))) (let ((.def_217 (ite .def_216 fluent_ready_i2_t3@1 .def_215))) (let ((.def_218 (= .def_217 true))) (let ((.def_219 (=> true .def_218))) (let ((.def_220 (and .def_39 .def_219))) (let ((.def_221 (= fluent_busy_@1 false))) (let ((.def_222 (=> true .def_221))) (let ((.def_223 (and .def_18 .def_4))) (let ((.def_224 (ite .def_223 fluent_treated_i1_t0@1 fluent_treated_i0_t0@1))) (let ((.def_225 (and .def_17 .def_4))) (let ((.def_226 (ite .def_225 fluent_treated_i2_t0@1 .def_224))) (let ((.def_227 (and .def_19 .def_3))) (let ((.def_228 (ite .def_227 fluent_treated_i0_t1@1 .def_226))) (let ((.def_229 (and .def_18 .def_3))) (let ((.def_230 (ite .def_229 fluent_treated_i1_t1@1 .def_228))) (let ((.def_231 (and .def_17 .def_3))) (let ((.def_232 (ite .def_231 fluent_treated_i2_t1@1 .def_230))) (let ((.def_233 (and .def_19 .def_2))) (let ((.def_234 (ite .def_233 fluent_treated_i0_t2@1 .def_232))) (let ((.def_235 (and .def_18 .def_2))) (let ((.def_236 (ite .def_235 fluent_treated_i1_t2@1 .def_234))) (let ((.def_237 (and .def_17 .def_2))) (let ((.def_238 (ite .def_237 fluent_treated_i2_t2@1 .def_236))) (let ((.def_239 (and .def_19 .def_1))) (let ((.def_240 (ite .def_239 fluent_treated_i0_t3@1 .def_238))) (let ((.def_241 (and .def_18 .def_1))) (let ((.def_242 (ite .def_241 fluent_treated_i1_t3@1 .def_240))) (let ((.def_243 (and .def_17 .def_1))) (let ((.def_244 (ite .def_243 fluent_treated_i2_t3@1 .def_242))) (let ((.def_245 (= .def_244 true))) (let ((.def_246 (=> true .def_245))) (let ((.def_247 (and .def_137 .def_246 .def_222))) (let ((.def_248 (ite .def_223 fluent_started_i1_t0@1 fluent_started_i0_t0@1))) (let ((.def_249 (ite .def_225 fluent_started_i2_t0@1 .def_248))) (let ((.def_250 (ite .def_227 fluent_started_i0_t1@1 .def_249))) (let ((.def_251 (ite .def_229 fluent_started_i1_t1@1 .def_250))) (let ((.def_252 (ite .def_231 fluent_started_i2_t1@1 .def_251))) (let ((.def_253 (ite .def_233 fluent_started_i0_t2@1 .def_252))) (let ((.def_254 (ite .def_235 fluent_started_i1_t2@1 .def_253))) (let ((.def_255 (ite .def_237 fluent_started_i2_t2@1 .def_254))) (let ((.def_256 (ite .def_239 fluent_started_i0_t3@1 .def_255))) (let ((.def_257 (ite .def_241 fluent_started_i1_t3@1 .def_256))) (let ((.def_258 (ite .def_243 fluent_started_i2_t3@1 .def_257))) (let ((.def_259 (= .def_258 true))) (let ((.def_260 (=> true .def_259))) (let ((.def_261 (= fluent_busy_@1 true))) (let ((.def_262 (=> true .def_261))) (let ((.def_263 (ite .def_3 fluent_counter_t1@0 fluent_counter_t0@0))) (let ((.def_264 (ite .def_2 fluent_counter_t2@0 .def_263))) (let ((.def_265 (ite .def_1 fluent_counter_t3@0 .def_264))) (let ((.def_266 (+ .def_265 1.0))) (let ((.def_267 (ite .def_3 fluent_counter_t1@1 fluent_counter_t0@1))) (let ((.def_268 (ite .def_2 fluent_counter_t2@1 .def_267))) (let ((.def_269 (ite .def_1 fluent_counter_t3@1 .def_268))) (let ((.def_270 (= .def_269 .def_266))) (let ((.def_271 (=> true .def_270))) (let ((.def_272 (= t@1 t@1))) (let ((.def_273 (and .def_272 .def_271 .def_262 .def_260))) (let ((.def_274 (ite .def_196 fluent_started_i1_t0@0 fluent_started_i0_t0@0))) (let ((.def_275 (ite .def_198 fluent_started_i2_t0@0 .def_274))) (let ((.def_276 (ite .def_200 fluent_started_i0_t1@0 .def_275))) (let ((.def_277 (ite .def_202 fluent_started_i1_t1@0 .def_276))) (let ((.def_278 (ite .def_204 fluent_started_i2_t1@0 .def_277))) (let ((.def_279 (ite .def_206 fluent_started_i0_t2@0 .def_278))) (let ((.def_280 (ite .def_208 fluent_started_i1_t2@0 .def_279))) (let ((.def_281 (ite .def_210 fluent_started_i2_t2@0 .def_280))) (let ((.def_282 (ite .def_212 fluent_started_i0_t3@0 .def_281))) (let ((.def_283 (ite .def_214 fluent_started_i1_t3@0 .def_282))) (let ((.def_284 (ite .def_216 fluent_started_i2_t3@0 .def_283))) (let ((.def_285 (+ t@1 dur_make_treatment@1))) (let ((.def_286 (<= .def_285 t@1))) (let ((.def_287 (< (- 1.0) .def_285))) (let ((.def_288 (and .def_287 .def_286))) (let ((.def_289 (=> .def_288 .def_284))) (let ((.def_290 (ite .def_223 fluent_ready_i1_t0@0 fluent_ready_i0_t0@0))) (let ((.def_291 (ite .def_225 fluent_ready_i2_t0@0 .def_290))) (let ((.def_292 (ite .def_227 fluent_ready_i0_t1@0 .def_291))) (let ((.def_293 (ite .def_229 fluent_ready_i1_t1@0 .def_292))) (let ((.def_294 (ite .def_231 fluent_ready_i2_t1@0 .def_293))) (let ((.def_295 (ite .def_233 fluent_ready_i0_t2@0 .def_294))) (let ((.def_296 (ite .def_235 fluent_ready_i1_t2@0 .def_295))) (let ((.def_297 (ite .def_237 fluent_ready_i2_t2@0 .def_296))) (let ((.def_298 (ite .def_239 fluent_ready_i0_t3@0 .def_297))) (let ((.def_299 (ite .def_241 fluent_ready_i1_t3@0 .def_298))) (let ((.def_300 (ite .def_243 fluent_ready_i2_t3@0 .def_299))) (let ((.def_301 (ite .def_223 fluent_started_i1_t0@0 fluent_started_i0_t0@0))) (let ((.def_302 (ite .def_225 fluent_started_i2_t0@0 .def_301))) (let ((.def_303 (ite .def_227 fluent_started_i0_t1@0 .def_302))) (let ((.def_304 (ite .def_229 fluent_started_i1_t1@0 .def_303))) (let ((.def_305 (ite .def_231 fluent_started_i2_t1@0 .def_304))) (let ((.def_306 (ite .def_233 fluent_started_i0_t2@0 .def_305))) (let ((.def_307 (ite .def_235 fluent_started_i1_t2@0 .def_306))) (let ((.def_308 (ite .def_237 fluent_started_i2_t2@0 .def_307))) (let ((.def_309 (ite .def_239 fluent_started_i0_t3@0 .def_308))) (let ((.def_310 (ite .def_241 fluent_started_i1_t3@0 .def_309))) (let ((.def_311 (ite .def_243 fluent_started_i2_t3@0 .def_310))) (let ((.def_312 (not .def_311))) (let ((.def_313 (ite .def_223 fluent_treated_i1_t0@0 fluent_treated_i0_t0@0))) (let ((.def_314 (ite .def_225 fluent_treated_i2_t0@0 .def_313))) (let ((.def_315 (ite .def_227 fluent_treated_i0_t1@0 .def_314))) (let ((.def_316 (ite .def_229 fluent_treated_i1_t1@0 .def_315))) (let ((.def_317 (ite .def_231 fluent_treated_i2_t1@0 .def_316))) (let ((.def_318 (ite .def_233 fluent_treated_i0_t2@0 .def_317))) (let ((.def_319 (ite .def_235 fluent_treated_i1_t2@0 .def_318))) (let ((.def_320 (ite .def_237 fluent_treated_i2_t2@0 .def_319))) (let ((.def_321 (ite .def_239 fluent_treated_i0_t3@0 .def_320))) (let ((.def_322 (ite .def_241 fluent_treated_i1_t3@0 .def_321))) (let ((.def_323 (ite .def_243 fluent_treated_i2_t3@0 .def_322))) (let ((.def_324 (not .def_323))) (let ((.def_325 (not fluent_busy_@0))) (let ((.def_326 (and .def_3 .def_12))) (let ((.def_327 (ite .def_326 false false))) (let ((.def_328 (and .def_2 .def_12))) (let ((.def_329 (ite .def_328 false .def_327))) (let ((.def_330 (and .def_1 .def_12))) (let ((.def_331 (ite .def_330 false .def_329))) (let ((.def_332 (and .def_4 .def_11))) (let ((.def_333 (ite .def_332 true .def_331))) (let ((.def_334 (and .def_3 .def_11))) (let ((.def_335 (ite .def_334 false .def_333))) (let ((.def_336 (and .def_2 .def_11))) (let ((.def_337 (ite .def_336 false .def_335))) (let ((.def_338 (and .def_1 .def_11))) (let ((.def_339 (ite .def_338 false .def_337))) (let ((.def_340 (and .def_4 .def_10))) (let ((.def_341 (ite .def_340 false .def_339))) (let ((.def_342 (and .def_3 .def_10))) (let ((.def_343 (ite .def_342 true .def_341))) (let ((.def_344 (and .def_2 .def_10))) (let ((.def_345 (ite .def_344 false .def_343))) (let ((.def_346 (and .def_1 .def_10))) (let ((.def_347 (ite .def_346 false .def_345))) (let ((.def_348 (and .def_4 .def_9))) (let ((.def_349 (ite .def_348 false .def_347))) (let ((.def_350 (and .def_3 .def_9))) (let ((.def_351 (ite .def_350 false .def_349))) (let ((.def_352 (and .def_2 .def_9))) (let ((.def_353 (ite .def_352 true .def_351))) (let ((.def_354 (and .def_1 .def_9))) (let ((.def_355 (ite .def_354 false .def_353))) (let ((.def_356 (ite .def_18 1.0 0.0))) (let ((.def_357 (ite .def_17 2.0 .def_356))) (let ((.def_358 (= .def_357 .def_265))) (let ((.def_359 (and .def_358 .def_355 .def_325 .def_324 .def_312 .def_300))) (let ((.def_360 (<= t@1 t@1))) (let ((.def_361 (< (- 1.0) t@1))) (let ((.def_362 (and .def_361 .def_360))) (let ((.def_363 (=> .def_362 .def_359))) (let ((.def_364 (<= dur_make_treatment@1 15.0))) (let ((.def_365 (<= 15.0 dur_make_treatment@1))) (let ((.def_366 (and .def_365 .def_364))) (let ((.def_367 (and .def_366 .def_286 .def_363 .def_289 .def_273 .def_247 .def_220))) (let ((.def_368 (=> act_make_treatment@1 .def_367))) (let ((.def_369 (<= fluent_counter_t1@0 31.0))) (let ((.def_370 (<= 0.0 fluent_counter_t1@0))) (let ((.def_371 (<= fluent_counter_t0@0 31.0))) (let ((.def_372 (<= 0.0 fluent_counter_t0@0))) (let ((.def_373 (<= fluent_counter_t3@0 31.0))) (let ((.def_374 (<= 0.0 fluent_counter_t3@0))) (let ((.def_375 (<= fluent_counter_t2@0 31.0))) (let ((.def_376 (<= 0.0 fluent_counter_t2@0))) (let ((.def_377 (= fluent_counter_t3@0 0.0))) (let ((.def_378 (= fluent_counter_t2@0 0.0))) (let ((.def_379 (= fluent_counter_t1@0 0.0))) (let ((.def_380 (= fluent_counter_t0@0 0.0))) (let ((.def_381 (= false false))) (let ((.def_382 (= fluent_ready_i2_t3@0 false))) (let ((.def_383 (= fluent_ready_i1_t3@0 false))) (let ((.def_384 (= fluent_ready_i0_t3@0 false))) (let ((.def_385 (= fluent_ready_i2_t2@0 false))) (let ((.def_386 (= fluent_ready_i1_t2@0 false))) (let ((.def_387 (= fluent_ready_i0_t2@0 false))) (let ((.def_388 (= fluent_ready_i2_t1@0 false))) (let ((.def_389 (= fluent_ready_i1_t1@0 false))) (let ((.def_390 (= fluent_ready_i0_t1@0 false))) (let ((.def_391 (= fluent_started_i2_t2@0 false))) (let ((.def_392 (= fluent_started_i1_t2@0 false))) (let ((.def_393 (= fluent_started_i0_t2@0 false))) (let ((.def_394 (= fluent_started_i2_t1@0 false))) (let ((.def_395 (= fluent_started_i1_t1@0 false))) (let ((.def_396 (= fluent_started_i0_t1@0 false))) (let ((.def_397 (= fluent_started_i2_t0@0 false))) (let ((.def_398 (= fluent_started_i1_t0@0 false))) (let ((.def_399 (= fluent_started_i0_t0@0 false))) (let ((.def_400 (= fluent_treated_i2_t3@0 false))) (let ((.def_401 (= fluent_treated_i1_t3@0 false))) (let ((.def_402 (= fluent_treated_i0_t3@0 false))) (let ((.def_403 (= fluent_treated_i2_t2@0 false))) (let ((.def_404 (= fluent_treated_i1_t2@0 false))) (let ((.def_405 (= fluent_treated_i0_t2@0 false))) (let ((.def_406 (= fluent_treated_i2_t1@0 false))) (let ((.def_407 (= fluent_treated_i1_t1@0 false))) (let ((.def_408 (= fluent_treated_i0_t1@0 false))) (let ((.def_409 (= fluent_treated_i2_t0@0 false))) (let ((.def_410 (= fluent_treated_i1_t0@0 false))) (let ((.def_411 (= fluent_treated_i0_t0@0 false))) (let ((.def_412 (= fluent_busy_@0 false))) (let ((.def_413 (= fluent_ready_i2_t0@0 true))) (let ((.def_414 (= fluent_started_i2_t3@0 true))) (let ((.def_415 (= fluent_ready_i1_t0@0 true))) (let ((.def_416 (= fluent_started_i1_t3@0 true))) (let ((.def_417 (= fluent_ready_i0_t0@0 true))) (let ((.def_418 (= fluent_started_i0_t3@0 true))) (let ((.def_419 (= true true))) (let ((.def_420 (= 2.0 2.0))) (let ((.def_421 (= 1.0 1.0))) (let ((.def_422 (= 0.0 0.0))) (let ((.def_423 (and .def_422 .def_421 .def_420 .def_419 .def_419 .def_419 .def_418 .def_417 .def_416 .def_415 .def_414 .def_413 .def_412 .def_411 .def_410 .def_409 .def_408 .def_407 .def_406 .def_405 .def_404 .def_403 .def_402 .def_401 .def_400 .def_399 .def_398 .def_397 .def_396 .def_395 .def_394 .def_393 .def_392 .def_391 .def_390 .def_389 .def_388 .def_387 .def_386 .def_385 .def_384 .def_383 .def_382 .def_381 .def_381 .def_381 .def_381 .def_381 .def_381 .def_381 .def_381 .def_381 .def_381 .def_381 .def_381 .def_381 .def_380 .def_379 .def_378 .def_377 .def_376 .def_375 .def_374 .def_373 .def_372 .def_371 .def_370 .def_369))) (let ((.def_424 (and .def_423 .def_368 .def_195 true true .def_194 .def_21 .def_20 .def_16 .def_15 .def_14 .def_13 .def_8 .def_7 .def_6 .def_5 .def_0 true))) .def_424))))))))))))))))))))))))))))))))))))))))))))))))))))))))))))))))))))))))))))))))))))))))))))))))))))))))))))))))))))))))))))))))))))))))))))))))))))))))))))))))))))))))))))))))))))))))))))))))))))))))))))))))))))))))))))))))))))))))))))))))))))))))))))))))))))))))))))))))))))))))))))))))))))))))))))))))))))))))))))))))))))))))))))))))))))))))))))))))))))))))))))))))))))))))))))))))))))))))))))))))))))))))))))))))))))))))))
(check-sat)


